r = [
0,219,83,267,145,282,294,134,161,47,174,275,134,150,199,120,159,72,177,190,207,217,101,79,148,70,0
];
p = [
0,23,1,13,24,3,30,5,10,5,24,14,6,25,3,27,10,2,14,16,13,5,14,19,15,15,0
];
e = [
0,16,3,18,18,17,11,19,8,1,9,16,18,12,10,1,4,9,15,20,14,9,11,8,7,17,0
];
d = [
0,255,104,315,189,311,343,155,189,84,216,295,159,175,243,153,207,101,202,227,225,263,121,107,176,101,346
];
d_bar = [
0,257,105,316,191,312,346,156,190,85,218,296,160,178,244,156,208,102,203,229,226,264,122,109,178,103,346
];
w = [
0,8,3,18,9,17,3.666666667,19,8,1,4.5,16,18,4,10,0.333333333,4,9,15,10,14,9,11,4,3.5,8.5,0
];
